# Objective value = -1.1899549427041993e+07
Slot(VEL601G,1) 0
Slot(HBV401G,1) 0
Slot(STA202G,1) 0
Slot(EFN205G,1) 0
Slot(LEF406G,1) 0
Slot(EFN214G,1) 0
Slot(JAR418G,1) 0
Slot(FER603M,1) 1
Slot(RAF403G,1) 0
Slot(BYG603G,1) 0
Slot(TOL203F,1) 0
Slot(IDN209F,1) 0
Slot(JAR253F,1) 0
Slot(LIF412M,1) 0
Slot(LEF617M,1) 0
Slot(UMV213F,1) 0
Slot(LAN203G,1) 0
Slot(STA405G,1) 0
Slot(STA209G,1) 0
Slot(TOL203G,1) 0
Slot(UAU214M,1) 0
Slot(VEL202G,1) 1
Slot(LIF401G,1) 1
Slot(LAN604M,1) 0
Slot(EDL403G,1) 0
Slot(BYG201G,1) 0
Slot(TOL401G,1) 0
Slot(JAR211G,1) 0
Slot(JAR417G,1) 0
Slot(RAF401G,1) 0
Slot(RAF616M,1) 0
Slot(STA403M,1) 0
Slot(EFN410G,1) 0
Slot(IDN403G,1) 0
Slot(REI202M,1) 0
Slot(LIF201G,1) 0
Slot(REI201G,1) 0
Slot(STA207G,1) 0
Slot(STA401G,1) 0
Slot(HBV601G,1) 0
Slot(LIF633G,1) 0
Slot(FER409G,1) 0
Slot(LIF227F,1) 0
Slot(FER210F,1) 0
Slot(STA205G,1) 0
Slot(IDN603G,1) 0
Slot(JED201G,1) 0
Slot(LIF635G,1) 0
Slot(EDL402G,1) 0
Slot(EFN406G,1) 0
Slot(BYG401G,1) 0
Slot(TOV602M,1) 0
Slot(STA203G,1) 0
Slot(MAS201F,1) 0
Slot(VEL218F,1) 0
Slot(JAR617G,1) 0
Slot(LIF410G,1) 0
Slot(UAU206M,1) 0
Slot(LAN205G,1) 0
Slot(LIF243F,1) 0
Slot(RAF601G,1) 0
Slot(EDL204G,1) 0
Slot(EFN404G,1) 0
Slot(BYG601G,1) 0
Slot(IDN401G,1) 0
Slot(LIF214G,1) 0
Slot(EDL612M,1) 1
Slot(VEL402G,1) 0
Slot(HBV201G,1) 1
Slot(JAR202G,1) 0
Slot(LIF615M,1) 0
Slot(RAF201G,1) 0
Slot(LEF616M,1) 0
Slot(UMV203G,1) 0
Slot(TOL202M,1) 0
Slot(LAN219G,1) 0
Slot(LAN410G,1) 0
Slot(LAN209F,1) 0
Slot(RAF402G,1) 0
Slot(EDL401G,1) 0
Slot(EFN202G,1) 0
Slot(TOL403G,1) 0
Slot(JAR415G,1) 0
Slot(JAR212G,1) 0
Slot(LIF403G,1) 0
Slot(FER208G,1) 0
Slot(UMV203M,1) 1
Slot(HBV203F,1) 0
Slot(STA418M,1) 0
Slot(EDL201G,1) 0
Slot(EFN207G,1) 0
Slot(EDL402M,1) 0
Slot(EDL206G,1) 0
Slot(BYG202M,1) 0
Slot(BYG203M,1) 0
Slot(VEL401G,1) 0
Slot(IDN402G,1) 0
Slot(JAR619G,1) 0
Slot(LIF215G,1) 0
Slot(TOV201G,1) 0
Slot(EFN208G,1) 0
Slot(HBV402G,1) 0
Slot(JAR611G,1) 0
Slot(LIF614M,1) 0
Slot(LAN401G,1) 0
Slot(FER609G,1) 0
Slot(FER211F,1) 0
Slot(RAF404G,1) 0
Slot(STA411G,1) 0
Slot(EDL205G,1) 0
Slot(EFN408G,1) 0
Slot(UMV201G,1) 0
Slot(BYG201M,1) 0
Slot(VEL201G,1) 0
Slot(TOL203M,1) 0
Slot(VEL215F,1) 0
Slot(EFN612M,1) 0
Slot(VEL405G,1) 0
Slot(EDL203G,1) 0
Slot(VEL601G,2) 0
Slot(HBV401G,2) 0
Slot(STA202G,2) 0
Slot(EFN205G,2) 0
Slot(LEF406G,2) 0
Slot(EFN214G,2) 0
Slot(JAR418G,2) 0
Slot(FER603M,2) 0
Slot(RAF403G,2) 0
Slot(BYG603G,2) 0
Slot(TOL203F,2) 0
Slot(IDN209F,2) 0
Slot(JAR253F,2) 0
Slot(LIF412M,2) 0
Slot(LEF617M,2) 0
Slot(UMV213F,2) 0
Slot(LAN203G,2) 0
Slot(STA405G,2) 0
Slot(STA209G,2) 0
Slot(TOL203G,2) 0
Slot(UAU214M,2) 0
Slot(VEL202G,2) 0
Slot(LIF401G,2) 0
Slot(LAN604M,2) 0
Slot(EDL403G,2) 0
Slot(BYG201G,2) 0
Slot(TOL401G,2) 0
Slot(JAR211G,2) 0
Slot(JAR417G,2) 0
Slot(RAF401G,2) 0
Slot(RAF616M,2) 1
Slot(STA403M,2) 0
Slot(EFN410G,2) 0
Slot(IDN403G,2) 0
Slot(REI202M,2) 0
Slot(LIF201G,2) 0
Slot(REI201G,2) 0
Slot(STA207G,2) 0
Slot(STA401G,2) 0
Slot(HBV601G,2) 0
Slot(LIF633G,2) 0
Slot(FER409G,2) 0
Slot(LIF227F,2) 0
Slot(FER210F,2) 0
Slot(STA205G,2) 0
Slot(IDN603G,2) 0
Slot(JED201G,2) 0
Slot(LIF635G,2) 1
Slot(EDL402G,2) 0
Slot(EFN406G,2) 0
Slot(BYG401G,2) 0
Slot(TOV602M,2) 0
Slot(STA203G,2) 0
Slot(MAS201F,2) 0
Slot(VEL218F,2) 0
Slot(JAR617G,2) 0
Slot(LIF410G,2) 0
Slot(UAU206M,2) 0
Slot(LAN205G,2) 0
Slot(LIF243F,2) 0
Slot(RAF601G,2) 0
Slot(EDL204G,2) 0
Slot(EFN404G,2) 0
Slot(BYG601G,2) 0
Slot(IDN401G,2) 0
Slot(LIF214G,2) 1
Slot(EDL612M,2) 0
Slot(VEL402G,2) 0
Slot(HBV201G,2) 0
Slot(JAR202G,2) 0
Slot(LIF615M,2) 0
Slot(RAF201G,2) 0
Slot(LEF616M,2) 0
Slot(UMV203G,2) 0
Slot(TOL202M,2) 1
Slot(LAN219G,2) 0
Slot(LAN410G,2) 0
Slot(LAN209F,2) 0
Slot(RAF402G,2) 0
Slot(EDL401G,2) 0
Slot(EFN202G,2) 0
Slot(TOL403G,2) 0
Slot(JAR415G,2) 0
Slot(JAR212G,2) 1
Slot(LIF403G,2) 0
Slot(FER208G,2) 0
Slot(UMV203M,2) 0
Slot(HBV203F,2) 0
Slot(STA418M,2) 1
Slot(EDL201G,2) 1
Slot(EFN207G,2) 0
Slot(EDL402M,2) 1
Slot(EDL206G,2) 1
Slot(BYG202M,2) 0
Slot(BYG203M,2) 0
Slot(VEL401G,2) 0
Slot(IDN402G,2) 0
Slot(JAR619G,2) 0
Slot(LIF215G,2) 0
Slot(TOV201G,2) 0
Slot(EFN208G,2) 0
Slot(HBV402G,2) 0
Slot(JAR611G,2) 0
Slot(LIF614M,2) 0
Slot(LAN401G,2) 0
Slot(FER609G,2) 0
Slot(FER211F,2) 0
Slot(RAF404G,2) 0
Slot(STA411G,2) 0
Slot(EDL205G,2) 0
Slot(EFN408G,2) 0
Slot(UMV201G,2) 0
Slot(BYG201M,2) 0
Slot(VEL201G,2) 0
Slot(TOL203M,2) 0
Slot(VEL215F,2) 0
Slot(EFN612M,2) 0
Slot(VEL405G,2) 0
Slot(EDL203G,2) 0
Slot(VEL601G,3) 0
Slot(HBV401G,3) 0
Slot(STA202G,3) 0
Slot(EFN205G,3) 0
Slot(LEF406G,3) 0
Slot(EFN214G,3) 0
Slot(JAR418G,3) 0
Slot(FER603M,3) 0
Slot(RAF403G,3) 1
Slot(BYG603G,3) 1
Slot(TOL203F,3) 0
Slot(IDN209F,3) 0
Slot(JAR253F,3) 0
Slot(LIF412M,3) 0
Slot(LEF617M,3) 0
Slot(UMV213F,3) 0
Slot(LAN203G,3) 0
Slot(STA405G,3) 0
Slot(STA209G,3) 0
Slot(TOL203G,3) 0
Slot(UAU214M,3) 0
Slot(VEL202G,3) 0
Slot(LIF401G,3) 0
Slot(LAN604M,3) 0
Slot(EDL403G,3) 0
Slot(BYG201G,3) 0
Slot(TOL401G,3) 1
Slot(JAR211G,3) 0
Slot(JAR417G,3) 0
Slot(RAF401G,3) 0
Slot(RAF616M,3) 0
Slot(STA403M,3) 0
Slot(EFN410G,3) 0
Slot(IDN403G,3) 0
Slot(REI202M,3) 0
Slot(LIF201G,3) 0
Slot(REI201G,3) 0
Slot(STA207G,3) 0
Slot(STA401G,3) 0
Slot(HBV601G,3) 0
Slot(LIF633G,3) 0
Slot(FER409G,3) 0
Slot(LIF227F,3) 0
Slot(FER210F,3) 0
Slot(STA205G,3) 0
Slot(IDN603G,3) 0
Slot(JED201G,3) 1
Slot(LIF635G,3) 0
Slot(EDL402G,3) 1
Slot(EFN406G,3) 0
Slot(BYG401G,3) 0
Slot(TOV602M,3) 0
Slot(STA203G,3) 0
Slot(MAS201F,3) 0
Slot(VEL218F,3) 0
Slot(JAR617G,3) 0
Slot(LIF410G,3) 1
Slot(UAU206M,3) 0
Slot(LAN205G,3) 0
Slot(LIF243F,3) 1
Slot(RAF601G,3) 0
Slot(EDL204G,3) 0
Slot(EFN404G,3) 0
Slot(BYG601G,3) 0
Slot(IDN401G,3) 0
Slot(LIF214G,3) 0
Slot(EDL612M,3) 0
Slot(VEL402G,3) 0
Slot(HBV201G,3) 0
Slot(JAR202G,3) 0
Slot(LIF615M,3) 0
Slot(RAF201G,3) 1
Slot(LEF616M,3) 0
Slot(UMV203G,3) 0
Slot(TOL202M,3) 0
Slot(LAN219G,3) 0
Slot(LAN410G,3) 0
Slot(LAN209F,3) 0
Slot(RAF402G,3) 0
Slot(EDL401G,3) 0
Slot(EFN202G,3) 0
Slot(TOL403G,3) 0
Slot(JAR415G,3) 0
Slot(JAR212G,3) 0
Slot(LIF403G,3) 0
Slot(FER208G,3) 0
Slot(UMV203M,3) 0
Slot(HBV203F,3) 0
Slot(STA418M,3) 0
Slot(EDL201G,3) 0
Slot(EFN207G,3) 0
Slot(EDL402M,3) 0
Slot(EDL206G,3) 0
Slot(BYG202M,3) 0
Slot(BYG203M,3) 0
Slot(VEL401G,3) 0
Slot(IDN402G,3) 0
Slot(JAR619G,3) 0
Slot(LIF215G,3) 1
Slot(TOV201G,3) 0
Slot(EFN208G,3) 0
Slot(HBV402G,3) 0
Slot(JAR611G,3) 0
Slot(LIF614M,3) 0
Slot(LAN401G,3) 0
Slot(FER609G,3) 0
Slot(FER211F,3) 0
Slot(RAF404G,3) 0
Slot(STA411G,3) 0
Slot(EDL205G,3) 0
Slot(EFN408G,3) 0
Slot(UMV201G,3) 1
Slot(BYG201M,3) 0
Slot(VEL201G,3) 0
Slot(TOL203M,3) 0
Slot(VEL215F,3) 0
Slot(EFN612M,3) 0
Slot(VEL405G,3) 0
Slot(EDL203G,3) 0
Slot(VEL601G,4) 0
Slot(HBV401G,4) 0
Slot(STA202G,4) 0
Slot(EFN205G,4) 0
Slot(LEF406G,4) 0
Slot(EFN214G,4) 0
Slot(JAR418G,4) 0
Slot(FER603M,4) 0
Slot(RAF403G,4) 0
Slot(BYG603G,4) 0
Slot(TOL203F,4) 0
Slot(IDN209F,4) 0
Slot(JAR253F,4) 0
Slot(LIF412M,4) 0
Slot(LEF617M,4) 1
Slot(UMV213F,4) 0
Slot(LAN203G,4) 0
Slot(STA405G,4) 0
Slot(STA209G,4) 0
Slot(TOL203G,4) 0
Slot(UAU214M,4) 0
Slot(VEL202G,4) 0
Slot(LIF401G,4) 0
Slot(LAN604M,4) 0
Slot(EDL403G,4) 0
Slot(BYG201G,4) 1
Slot(TOL401G,4) 0
Slot(JAR211G,4) 0
Slot(JAR417G,4) 0
Slot(RAF401G,4) 0
Slot(RAF616M,4) 0
Slot(STA403M,4) 0
Slot(EFN410G,4) 0
Slot(IDN403G,4) 0
Slot(REI202M,4) 0
Slot(LIF201G,4) 0
Slot(REI201G,4) 1
Slot(STA207G,4) 0
Slot(STA401G,4) 0
Slot(HBV601G,4) 0
Slot(LIF633G,4) 0
Slot(FER409G,4) 0
Slot(LIF227F,4) 0
Slot(FER210F,4) 0
Slot(STA205G,4) 0
Slot(IDN603G,4) 1
Slot(JED201G,4) 0
Slot(LIF635G,4) 0
Slot(EDL402G,4) 0
Slot(EFN406G,4) 0
Slot(BYG401G,4) 0
Slot(TOV602M,4) 1
Slot(STA203G,4) 0
Slot(MAS201F,4) 0
Slot(VEL218F,4) 0
Slot(JAR617G,4) 0
Slot(LIF410G,4) 0
Slot(UAU206M,4) 0
Slot(LAN205G,4) 0
Slot(LIF243F,4) 0
Slot(RAF601G,4) 0
Slot(EDL204G,4) 0
Slot(EFN404G,4) 0
Slot(BYG601G,4) 0
Slot(IDN401G,4) 0
Slot(LIF214G,4) 0
Slot(EDL612M,4) 0
Slot(VEL402G,4) 1
Slot(HBV201G,4) 0
Slot(JAR202G,4) 0
Slot(LIF615M,4) 0
Slot(RAF201G,4) 0
Slot(LEF616M,4) 0
Slot(UMV203G,4) 0
Slot(TOL202M,4) 0
Slot(LAN219G,4) 1
Slot(LAN410G,4) 0
Slot(LAN209F,4) 0
Slot(RAF402G,4) 0
Slot(EDL401G,4) 0
Slot(EFN202G,4) 0
Slot(TOL403G,4) 0
Slot(JAR415G,4) 0
Slot(JAR212G,4) 0
Slot(LIF403G,4) 0
Slot(FER208G,4) 0
Slot(UMV203M,4) 0
Slot(HBV203F,4) 1
Slot(STA418M,4) 0
Slot(EDL201G,4) 0
Slot(EFN207G,4) 0
Slot(EDL402M,4) 0
Slot(EDL206G,4) 0
Slot(BYG202M,4) 0
Slot(BYG203M,4) 0
Slot(VEL401G,4) 0
Slot(IDN402G,4) 0
Slot(JAR619G,4) 1
Slot(LIF215G,4) 0
Slot(TOV201G,4) 0
Slot(EFN208G,4) 0
Slot(HBV402G,4) 0
Slot(JAR611G,4) 0
Slot(LIF614M,4) 0
Slot(LAN401G,4) 0
Slot(FER609G,4) 0
Slot(FER211F,4) 0
Slot(RAF404G,4) 0
Slot(STA411G,4) 1
Slot(EDL205G,4) 0
Slot(EFN408G,4) 0
Slot(UMV201G,4) 0
Slot(BYG201M,4) 0
Slot(VEL201G,4) 0
Slot(TOL203M,4) 0
Slot(VEL215F,4) 1
Slot(EFN612M,4) 1
Slot(VEL405G,4) 0
Slot(EDL203G,4) 0
Slot(VEL601G,5) 0
Slot(HBV401G,5) 0
Slot(STA202G,5) 0
Slot(EFN205G,5) 0
Slot(LEF406G,5) 0
Slot(EFN214G,5) 0
Slot(JAR418G,5) 0
Slot(FER603M,5) 0
Slot(RAF403G,5) 0
Slot(BYG603G,5) 0
Slot(TOL203F,5) 0
Slot(IDN209F,5) 0
Slot(JAR253F,5) 0
Slot(LIF412M,5) 0
Slot(LEF617M,5) 0
Slot(UMV213F,5) 0
Slot(LAN203G,5) 0
Slot(STA405G,5) 0
Slot(STA209G,5) 0
Slot(TOL203G,5) 0
Slot(UAU214M,5) 0
Slot(VEL202G,5) 0
Slot(LIF401G,5) 0
Slot(LAN604M,5) 0
Slot(EDL403G,5) 1
Slot(BYG201G,5) 0
Slot(TOL401G,5) 0
Slot(JAR211G,5) 1
Slot(JAR417G,5) 0
Slot(RAF401G,5) 1
Slot(RAF616M,5) 0
Slot(STA403M,5) 0
Slot(EFN410G,5) 0
Slot(IDN403G,5) 0
Slot(REI202M,5) 0
Slot(LIF201G,5) 1
Slot(REI201G,5) 0
Slot(STA207G,5) 0
Slot(STA401G,5) 0
Slot(HBV601G,5) 0
Slot(LIF633G,5) 0
Slot(FER409G,5) 0
Slot(LIF227F,5) 0
Slot(FER210F,5) 0
Slot(STA205G,5) 0
Slot(IDN603G,5) 0
Slot(JED201G,5) 0
Slot(LIF635G,5) 0
Slot(EDL402G,5) 0
Slot(EFN406G,5) 0
Slot(BYG401G,5) 0
Slot(TOV602M,5) 0
Slot(STA203G,5) 0
Slot(MAS201F,5) 0
Slot(VEL218F,5) 0
Slot(JAR617G,5) 0
Slot(LIF410G,5) 0
Slot(UAU206M,5) 0
Slot(LAN205G,5) 0
Slot(LIF243F,5) 0
Slot(RAF601G,5) 0
Slot(EDL204G,5) 0
Slot(EFN404G,5) 0
Slot(BYG601G,5) 0
Slot(IDN401G,5) 0
Slot(LIF214G,5) 0
Slot(EDL612M,5) 0
Slot(VEL402G,5) 0
Slot(HBV201G,5) 0
Slot(JAR202G,5) 0
Slot(LIF615M,5) 0
Slot(RAF201G,5) 0
Slot(LEF616M,5) 0
Slot(UMV203G,5) 0
Slot(TOL202M,5) 0
Slot(LAN219G,5) 0
Slot(LAN410G,5) 0
Slot(LAN209F,5) 0
Slot(RAF402G,5) 0
Slot(EDL401G,5) 0
Slot(EFN202G,5) 0
Slot(TOL403G,5) 1
Slot(JAR415G,5) 0
Slot(JAR212G,5) 0
Slot(LIF403G,5) 0
Slot(FER208G,5) 0
Slot(UMV203M,5) 0
Slot(HBV203F,5) 0
Slot(STA418M,5) 0
Slot(EDL201G,5) 0
Slot(EFN207G,5) 0
Slot(EDL402M,5) 0
Slot(EDL206G,5) 0
Slot(BYG202M,5) 0
Slot(BYG203M,5) 0
Slot(VEL401G,5) 0
Slot(IDN402G,5) 1
Slot(JAR619G,5) 0
Slot(LIF215G,5) 0
Slot(TOV201G,5) 0
Slot(EFN208G,5) 0
Slot(HBV402G,5) 0
Slot(JAR611G,5) 1
Slot(LIF614M,5) 1
Slot(LAN401G,5) 0
Slot(FER609G,5) 0
Slot(FER211F,5) 0
Slot(RAF404G,5) 0
Slot(STA411G,5) 0
Slot(EDL205G,5) 0
Slot(EFN408G,5) 0
Slot(UMV201G,5) 0
Slot(BYG201M,5) 0
Slot(VEL201G,5) 0
Slot(TOL203M,5) 0
Slot(VEL215F,5) 0
Slot(EFN612M,5) 0
Slot(VEL405G,5) 0
Slot(EDL203G,5) 0
Slot(VEL601G,6) 1
Slot(HBV401G,6) 1
Slot(STA202G,6) 0
Slot(EFN205G,6) 0
Slot(LEF406G,6) 0
Slot(EFN214G,6) 0
Slot(JAR418G,6) 0
Slot(FER603M,6) 0
Slot(RAF403G,6) 0
Slot(BYG603G,6) 0
Slot(TOL203F,6) 0
Slot(IDN209F,6) 0
Slot(JAR253F,6) 0
Slot(LIF412M,6) 0
Slot(LEF617M,6) 0
Slot(UMV213F,6) 0
Slot(LAN203G,6) 0
Slot(STA405G,6) 0
Slot(STA209G,6) 0
Slot(TOL203G,6) 0
Slot(UAU214M,6) 0
Slot(VEL202G,6) 0
Slot(LIF401G,6) 0
Slot(LAN604M,6) 0
Slot(EDL403G,6) 0
Slot(BYG201G,6) 0
Slot(TOL401G,6) 0
Slot(JAR211G,6) 0
Slot(JAR417G,6) 1
Slot(RAF401G,6) 0
Slot(RAF616M,6) 0
Slot(STA403M,6) 0
Slot(EFN410G,6) 1
Slot(IDN403G,6) 1
Slot(REI202M,6) 0
Slot(LIF201G,6) 0
Slot(REI201G,6) 0
Slot(STA207G,6) 0
Slot(STA401G,6) 0
Slot(HBV601G,6) 0
Slot(LIF633G,6) 1
Slot(FER409G,6) 0
Slot(LIF227F,6) 1
Slot(FER210F,6) 0
Slot(STA205G,6) 0
Slot(IDN603G,6) 0
Slot(JED201G,6) 0
Slot(LIF635G,6) 0
Slot(EDL402G,6) 0
Slot(EFN406G,6) 0
Slot(BYG401G,6) 0
Slot(TOV602M,6) 0
Slot(STA203G,6) 0
Slot(MAS201F,6) 0
Slot(VEL218F,6) 0
Slot(JAR617G,6) 0
Slot(LIF410G,6) 0
Slot(UAU206M,6) 0
Slot(LAN205G,6) 0
Slot(LIF243F,6) 0
Slot(RAF601G,6) 0
Slot(EDL204G,6) 0
Slot(EFN404G,6) 0
Slot(BYG601G,6) 0
Slot(IDN401G,6) 0
Slot(LIF214G,6) 0
Slot(EDL612M,6) 0
Slot(VEL402G,6) 0
Slot(HBV201G,6) 0
Slot(JAR202G,6) 0
Slot(LIF615M,6) 0
Slot(RAF201G,6) 0
Slot(LEF616M,6) 0
Slot(UMV203G,6) 0
Slot(TOL202M,6) 0
Slot(LAN219G,6) 0
Slot(LAN410G,6) 0
Slot(LAN209F,6) 0
Slot(RAF402G,6) 0
Slot(EDL401G,6) 0
Slot(EFN202G,6) 0
Slot(TOL403G,6) 0
Slot(JAR415G,6) 0
Slot(JAR212G,6) 0
Slot(LIF403G,6) 0
Slot(FER208G,6) 0
Slot(UMV203M,6) 0
Slot(HBV203F,6) 0
Slot(STA418M,6) 0
Slot(EDL201G,6) 0
Slot(EFN207G,6) 0
Slot(EDL402M,6) 0
Slot(EDL206G,6) 0
Slot(BYG202M,6) 0
Slot(BYG203M,6) 0
Slot(VEL401G,6) 0
Slot(IDN402G,6) 0
Slot(JAR619G,6) 0
Slot(LIF215G,6) 0
Slot(TOV201G,6) 0
Slot(EFN208G,6) 0
Slot(HBV402G,6) 0
Slot(JAR611G,6) 0
Slot(LIF614M,6) 0
Slot(LAN401G,6) 0
Slot(FER609G,6) 0
Slot(FER211F,6) 0
Slot(RAF404G,6) 0
Slot(STA411G,6) 0
Slot(EDL205G,6) 1
Slot(EFN408G,6) 0
Slot(UMV201G,6) 0
Slot(BYG201M,6) 0
Slot(VEL201G,6) 0
Slot(TOL203M,6) 0
Slot(VEL215F,6) 0
Slot(EFN612M,6) 0
Slot(VEL405G,6) 0
Slot(EDL203G,6) 0
Slot(VEL601G,7) 0
Slot(HBV401G,7) 0
Slot(STA202G,7) 0
Slot(EFN205G,7) 0
Slot(LEF406G,7) 0
Slot(EFN214G,7) 0
Slot(JAR418G,7) 0
Slot(FER603M,7) 0
Slot(RAF403G,7) 0
Slot(BYG603G,7) 0
Slot(TOL203F,7) 0
Slot(IDN209F,7) 0
Slot(JAR253F,7) 0
Slot(LIF412M,7) 0
Slot(LEF617M,7) 0
Slot(UMV213F,7) 0
Slot(LAN203G,7) 0
Slot(STA405G,7) 1
Slot(STA209G,7) 0
Slot(TOL203G,7) 0
Slot(UAU214M,7) 0
Slot(VEL202G,7) 0
Slot(LIF401G,7) 0
Slot(LAN604M,7) 0
Slot(EDL403G,7) 0
Slot(BYG201G,7) 0
Slot(TOL401G,7) 0
Slot(JAR211G,7) 0
Slot(JAR417G,7) 0
Slot(RAF401G,7) 0
Slot(RAF616M,7) 0
Slot(STA403M,7) 0
Slot(EFN410G,7) 0
Slot(IDN403G,7) 0
Slot(REI202M,7) 0
Slot(LIF201G,7) 0
Slot(REI201G,7) 0
Slot(STA207G,7) 0
Slot(STA401G,7) 0
Slot(HBV601G,7) 0
Slot(LIF633G,7) 0
Slot(FER409G,7) 0
Slot(LIF227F,7) 0
Slot(FER210F,7) 0
Slot(STA205G,7) 0
Slot(IDN603G,7) 0
Slot(JED201G,7) 0
Slot(LIF635G,7) 0
Slot(EDL402G,7) 0
Slot(EFN406G,7) 0
Slot(BYG401G,7) 0
Slot(TOV602M,7) 0
Slot(STA203G,7) 0
Slot(MAS201F,7) 0
Slot(VEL218F,7) 0
Slot(JAR617G,7) 0
Slot(LIF410G,7) 0
Slot(UAU206M,7) 0
Slot(LAN205G,7) 0
Slot(LIF243F,7) 0
Slot(RAF601G,7) 0
Slot(EDL204G,7) 0
Slot(EFN404G,7) 0
Slot(BYG601G,7) 0
Slot(IDN401G,7) 0
Slot(LIF214G,7) 0
Slot(EDL612M,7) 0
Slot(VEL402G,7) 0
Slot(HBV201G,7) 0
Slot(JAR202G,7) 0
Slot(LIF615M,7) 0
Slot(RAF201G,7) 0
Slot(LEF616M,7) 0
Slot(UMV203G,7) 0
Slot(TOL202M,7) 0
Slot(LAN219G,7) 0
Slot(LAN410G,7) 0
Slot(LAN209F,7) 0
Slot(RAF402G,7) 0
Slot(EDL401G,7) 0
Slot(EFN202G,7) 0
Slot(TOL403G,7) 0
Slot(JAR415G,7) 0
Slot(JAR212G,7) 0
Slot(LIF403G,7) 1
Slot(FER208G,7) 0
Slot(UMV203M,7) 0
Slot(HBV203F,7) 0
Slot(STA418M,7) 0
Slot(EDL201G,7) 0
Slot(EFN207G,7) 0
Slot(EDL402M,7) 0
Slot(EDL206G,7) 0
Slot(BYG202M,7) 0
Slot(BYG203M,7) 0
Slot(VEL401G,7) 0
Slot(IDN402G,7) 0
Slot(JAR619G,7) 0
Slot(LIF215G,7) 0
Slot(TOV201G,7) 0
Slot(EFN208G,7) 0
Slot(HBV402G,7) 0
Slot(JAR611G,7) 0
Slot(LIF614M,7) 0
Slot(LAN401G,7) 0
Slot(FER609G,7) 1
Slot(FER211F,7) 1
Slot(RAF404G,7) 0
Slot(STA411G,7) 0
Slot(EDL205G,7) 0
Slot(EFN408G,7) 0
Slot(UMV201G,7) 0
Slot(BYG201M,7) 1
Slot(VEL201G,7) 0
Slot(TOL203M,7) 0
Slot(VEL215F,7) 0
Slot(EFN612M,7) 0
Slot(VEL405G,7) 0
Slot(EDL203G,7) 0
Slot(VEL601G,8) 0
Slot(HBV401G,8) 0
Slot(STA202G,8) 0
Slot(EFN205G,8) 0
Slot(LEF406G,8) 0
Slot(EFN214G,8) 0
Slot(JAR418G,8) 1
Slot(FER603M,8) 0
Slot(RAF403G,8) 0
Slot(BYG603G,8) 0
Slot(TOL203F,8) 0
Slot(IDN209F,8) 0
Slot(JAR253F,8) 0
Slot(LIF412M,8) 0
Slot(LEF617M,8) 0
Slot(UMV213F,8) 0
Slot(LAN203G,8) 0
Slot(STA405G,8) 0
Slot(STA209G,8) 0
Slot(TOL203G,8) 0
Slot(UAU214M,8) 0
Slot(VEL202G,8) 0
Slot(LIF401G,8) 0
Slot(LAN604M,8) 0
Slot(EDL403G,8) 0
Slot(BYG201G,8) 0
Slot(TOL401G,8) 0
Slot(JAR211G,8) 0
Slot(JAR417G,8) 0
Slot(RAF401G,8) 0
Slot(RAF616M,8) 0
Slot(STA403M,8) 0
Slot(EFN410G,8) 0
Slot(IDN403G,8) 0
Slot(REI202M,8) 0
Slot(LIF201G,8) 0
Slot(REI201G,8) 0
Slot(STA207G,8) 0
Slot(STA401G,8) 1
Slot(HBV601G,8) 1
Slot(LIF633G,8) 0
Slot(FER409G,8) 0
Slot(LIF227F,8) 0
Slot(FER210F,8) 0
Slot(STA205G,8) 0
Slot(IDN603G,8) 0
Slot(JED201G,8) 0
Slot(LIF635G,8) 0
Slot(EDL402G,8) 0
Slot(EFN406G,8) 1
Slot(BYG401G,8) 0
Slot(TOV602M,8) 0
Slot(STA203G,8) 0
Slot(MAS201F,8) 0
Slot(VEL218F,8) 0
Slot(JAR617G,8) 0
Slot(LIF410G,8) 0
Slot(UAU206M,8) 0
Slot(LAN205G,8) 0
Slot(LIF243F,8) 0
Slot(RAF601G,8) 0
Slot(EDL204G,8) 0
Slot(EFN404G,8) 0
Slot(BYG601G,8) 0
Slot(IDN401G,8) 0
Slot(LIF214G,8) 0
Slot(EDL612M,8) 0
Slot(VEL402G,8) 0
Slot(HBV201G,8) 0
Slot(JAR202G,8) 0
Slot(LIF615M,8) 0
Slot(RAF201G,8) 0
Slot(LEF616M,8) 0
Slot(UMV203G,8) 0
Slot(TOL202M,8) 0
Slot(LAN219G,8) 0
Slot(LAN410G,8) 0
Slot(LAN209F,8) 0
Slot(RAF402G,8) 0
Slot(EDL401G,8) 0
Slot(EFN202G,8) 0
Slot(TOL403G,8) 0
Slot(JAR415G,8) 0
Slot(JAR212G,8) 0
Slot(LIF403G,8) 0
Slot(FER208G,8) 0
Slot(UMV203M,8) 0
Slot(HBV203F,8) 0
Slot(STA418M,8) 0
Slot(EDL201G,8) 0
Slot(EFN207G,8) 0
Slot(EDL402M,8) 0
Slot(EDL206G,8) 0
Slot(BYG202M,8) 0
Slot(BYG203M,8) 0
Slot(VEL401G,8) 0
Slot(IDN402G,8) 0
Slot(JAR619G,8) 0
Slot(LIF215G,8) 0
Slot(TOV201G,8) 0
Slot(EFN208G,8) 0
Slot(HBV402G,8) 0
Slot(JAR611G,8) 0
Slot(LIF614M,8) 0
Slot(LAN401G,8) 0
Slot(FER609G,8) 0
Slot(FER211F,8) 0
Slot(RAF404G,8) 0
Slot(STA411G,8) 0
Slot(EDL205G,8) 0
Slot(EFN408G,8) 0
Slot(UMV201G,8) 0
Slot(BYG201M,8) 0
Slot(VEL201G,8) 0
Slot(TOL203M,8) 0
Slot(VEL215F,8) 0
Slot(EFN612M,8) 0
Slot(VEL405G,8) 0
Slot(EDL203G,8) 0
Slot(VEL601G,9) 0
Slot(HBV401G,9) 0
Slot(STA202G,9) 0
Slot(EFN205G,9) 0
Slot(LEF406G,9) 0
Slot(EFN214G,9) 0
Slot(JAR418G,9) 0
Slot(FER603M,9) 0
Slot(RAF403G,9) 0
Slot(BYG603G,9) 0
Slot(TOL203F,9) 0
Slot(IDN209F,9) 0
Slot(JAR253F,9) 0
Slot(LIF412M,9) 0
Slot(LEF617M,9) 0
Slot(UMV213F,9) 0
Slot(LAN203G,9) 0
Slot(STA405G,9) 0
Slot(STA209G,9) 0
Slot(TOL203G,9) 0
Slot(UAU214M,9) 0
Slot(VEL202G,9) 0
Slot(LIF401G,9) 0
Slot(LAN604M,9) 0
Slot(EDL403G,9) 0
Slot(BYG201G,9) 0
Slot(TOL401G,9) 0
Slot(JAR211G,9) 0
Slot(JAR417G,9) 0
Slot(RAF401G,9) 0
Slot(RAF616M,9) 0
Slot(STA403M,9) 0
Slot(EFN410G,9) 0
Slot(IDN403G,9) 0
Slot(REI202M,9) 1
Slot(LIF201G,9) 0
Slot(REI201G,9) 0
Slot(STA207G,9) 0
Slot(STA401G,9) 0
Slot(HBV601G,9) 0
Slot(LIF633G,9) 0
Slot(FER409G,9) 1
Slot(LIF227F,9) 0
Slot(FER210F,9) 1
Slot(STA205G,9) 0
Slot(IDN603G,9) 0
Slot(JED201G,9) 0
Slot(LIF635G,9) 0
Slot(EDL402G,9) 0
Slot(EFN406G,9) 0
Slot(BYG401G,9) 0
Slot(TOV602M,9) 0
Slot(STA203G,9) 0
Slot(MAS201F,9) 0
Slot(VEL218F,9) 0
Slot(JAR617G,9) 0
Slot(LIF410G,9) 0
Slot(UAU206M,9) 1
Slot(LAN205G,9) 0
Slot(LIF243F,9) 0
Slot(RAF601G,9) 0
Slot(EDL204G,9) 0
Slot(EFN404G,9) 0
Slot(BYG601G,9) 1
Slot(IDN401G,9) 0
Slot(LIF214G,9) 0
Slot(EDL612M,9) 0
Slot(VEL402G,9) 0
Slot(HBV201G,9) 0
Slot(JAR202G,9) 0
Slot(LIF615M,9) 0
Slot(RAF201G,9) 0
Slot(LEF616M,9) 0
Slot(UMV203G,9) 0
Slot(TOL202M,9) 0
Slot(LAN219G,9) 0
Slot(LAN410G,9) 0
Slot(LAN209F,9) 0
Slot(RAF402G,9) 1
Slot(EDL401G,9) 1
Slot(EFN202G,9) 0
Slot(TOL403G,9) 0
Slot(JAR415G,9) 0
Slot(JAR212G,9) 0
Slot(LIF403G,9) 0
Slot(FER208G,9) 0
Slot(UMV203M,9) 0
Slot(HBV203F,9) 0
Slot(STA418M,9) 0
Slot(EDL201G,9) 0
Slot(EFN207G,9) 0
Slot(EDL402M,9) 0
Slot(EDL206G,9) 0
Slot(BYG202M,9) 0
Slot(BYG203M,9) 0
Slot(VEL401G,9) 1
Slot(IDN402G,9) 0
Slot(JAR619G,9) 0
Slot(LIF215G,9) 0
Slot(TOV201G,9) 0
Slot(EFN208G,9) 1
Slot(HBV402G,9) 0
Slot(JAR611G,9) 0
Slot(LIF614M,9) 0
Slot(LAN401G,9) 0
Slot(FER609G,9) 0
Slot(FER211F,9) 0
Slot(RAF404G,9) 0
Slot(STA411G,9) 0
Slot(EDL205G,9) 0
Slot(EFN408G,9) 0
Slot(UMV201G,9) 0
Slot(BYG201M,9) 0
Slot(VEL201G,9) 0
Slot(TOL203M,9) 0
Slot(VEL215F,9) 0
Slot(EFN612M,9) 0
Slot(VEL405G,9) 0
Slot(EDL203G,9) 0
Slot(VEL601G,10) 0
Slot(HBV401G,10) 0
Slot(STA202G,10) 0
Slot(EFN205G,10) 0
Slot(LEF406G,10) 1
Slot(EFN214G,10) 0
Slot(JAR418G,10) 0
Slot(FER603M,10) 0
Slot(RAF403G,10) 0
Slot(BYG603G,10) 0
Slot(TOL203F,10) 0
Slot(IDN209F,10) 1
Slot(JAR253F,10) 0
Slot(LIF412M,10) 0
Slot(LEF617M,10) 0
Slot(UMV213F,10) 0
Slot(LAN203G,10) 0
Slot(STA405G,10) 0
Slot(STA209G,10) 0
Slot(TOL203G,10) 0
Slot(UAU214M,10) 0
Slot(VEL202G,10) 0
Slot(LIF401G,10) 0
Slot(LAN604M,10) 0
Slot(EDL403G,10) 0
Slot(BYG201G,10) 0
Slot(TOL401G,10) 0
Slot(JAR211G,10) 0
Slot(JAR417G,10) 0
Slot(RAF401G,10) 0
Slot(RAF616M,10) 0
Slot(STA403M,10) 0
Slot(EFN410G,10) 0
Slot(IDN403G,10) 0
Slot(REI202M,10) 0
Slot(LIF201G,10) 0
Slot(REI201G,10) 0
Slot(STA207G,10) 1
Slot(STA401G,10) 0
Slot(HBV601G,10) 0
Slot(LIF633G,10) 0
Slot(FER409G,10) 0
Slot(LIF227F,10) 0
Slot(FER210F,10) 0
Slot(STA205G,10) 0
Slot(IDN603G,10) 0
Slot(JED201G,10) 0
Slot(LIF635G,10) 0
Slot(EDL402G,10) 0
Slot(EFN406G,10) 0
Slot(BYG401G,10) 0
Slot(TOV602M,10) 0
Slot(STA203G,10) 0
Slot(MAS201F,10) 0
Slot(VEL218F,10) 0
Slot(JAR617G,10) 0
Slot(LIF410G,10) 0
Slot(UAU206M,10) 0
Slot(LAN205G,10) 0
Slot(LIF243F,10) 0
Slot(RAF601G,10) 1
Slot(EDL204G,10) 0
Slot(EFN404G,10) 0
Slot(BYG601G,10) 0
Slot(IDN401G,10) 0
Slot(LIF214G,10) 0
Slot(EDL612M,10) 0
Slot(VEL402G,10) 0
Slot(HBV201G,10) 0
Slot(JAR202G,10) 0
Slot(LIF615M,10) 0
Slot(RAF201G,10) 0
Slot(LEF616M,10) 0
Slot(UMV203G,10) 1
Slot(TOL202M,10) 0
Slot(LAN219G,10) 0
Slot(LAN410G,10) 0
Slot(LAN209F,10) 0
Slot(RAF402G,10) 0
Slot(EDL401G,10) 0
Slot(EFN202G,10) 0
Slot(TOL403G,10) 0
Slot(JAR415G,10) 0
Slot(JAR212G,10) 0
Slot(LIF403G,10) 0
Slot(FER208G,10) 0
Slot(UMV203M,10) 0
Slot(HBV203F,10) 0
Slot(STA418M,10) 0
Slot(EDL201G,10) 0
Slot(EFN207G,10) 1
Slot(EDL402M,10) 0
Slot(EDL206G,10) 0
Slot(BYG202M,10) 0
Slot(BYG203M,10) 0
Slot(VEL401G,10) 0
Slot(IDN402G,10) 0
Slot(JAR619G,10) 0
Slot(LIF215G,10) 0
Slot(TOV201G,10) 1
Slot(EFN208G,10) 0
Slot(HBV402G,10) 0
Slot(JAR611G,10) 0
Slot(LIF614M,10) 0
Slot(LAN401G,10) 0
Slot(FER609G,10) 0
Slot(FER211F,10) 0
Slot(RAF404G,10) 0
Slot(STA411G,10) 0
Slot(EDL205G,10) 0
Slot(EFN408G,10) 0
Slot(UMV201G,10) 0
Slot(BYG201M,10) 0
Slot(VEL201G,10) 1
Slot(TOL203M,10) 0
Slot(VEL215F,10) 0
Slot(EFN612M,10) 0
Slot(VEL405G,10) 0
Slot(EDL203G,10) 0
Slot(VEL601G,11) 0
Slot(HBV401G,11) 0
Slot(STA202G,11) 0
Slot(EFN205G,11) 0
Slot(LEF406G,11) 0
Slot(EFN214G,11) 0
Slot(JAR418G,11) 0
Slot(FER603M,11) 0
Slot(RAF403G,11) 0
Slot(BYG603G,11) 0
Slot(TOL203F,11) 0
Slot(IDN209F,11) 0
Slot(JAR253F,11) 0
Slot(LIF412M,11) 0
Slot(LEF617M,11) 0
Slot(UMV213F,11) 0
Slot(LAN203G,11) 0
Slot(STA405G,11) 0
Slot(STA209G,11) 0
Slot(TOL203G,11) 0
Slot(UAU214M,11) 0
Slot(VEL202G,11) 0
Slot(LIF401G,11) 0
Slot(LAN604M,11) 1
Slot(EDL403G,11) 0
Slot(BYG201G,11) 0
Slot(TOL401G,11) 0
Slot(JAR211G,11) 0
Slot(JAR417G,11) 0
Slot(RAF401G,11) 0
Slot(RAF616M,11) 0
Slot(STA403M,11) 1
Slot(EFN410G,11) 0
Slot(IDN403G,11) 0
Slot(REI202M,11) 0
Slot(LIF201G,11) 0
Slot(REI201G,11) 0
Slot(STA207G,11) 0
Slot(STA401G,11) 0
Slot(HBV601G,11) 0
Slot(LIF633G,11) 0
Slot(FER409G,11) 0
Slot(LIF227F,11) 0
Slot(FER210F,11) 0
Slot(STA205G,11) 1
Slot(IDN603G,11) 0
Slot(JED201G,11) 0
Slot(LIF635G,11) 0
Slot(EDL402G,11) 0
Slot(EFN406G,11) 0
Slot(BYG401G,11) 0
Slot(TOV602M,11) 0
Slot(STA203G,11) 0
Slot(MAS201F,11) 0
Slot(VEL218F,11) 0
Slot(JAR617G,11) 0
Slot(LIF410G,11) 0
Slot(UAU206M,11) 0
Slot(LAN205G,11) 0
Slot(LIF243F,11) 0
Slot(RAF601G,11) 0
Slot(EDL204G,11) 0
Slot(EFN404G,11) 0
Slot(BYG601G,11) 0
Slot(IDN401G,11) 0
Slot(LIF214G,11) 0
Slot(EDL612M,11) 0
Slot(VEL402G,11) 0
Slot(HBV201G,11) 0
Slot(JAR202G,11) 0
Slot(LIF615M,11) 0
Slot(RAF201G,11) 0
Slot(LEF616M,11) 0
Slot(UMV203G,11) 0
Slot(TOL202M,11) 0
Slot(LAN219G,11) 0
Slot(LAN410G,11) 1
Slot(LAN209F,11) 1
Slot(RAF402G,11) 0
Slot(EDL401G,11) 0
Slot(EFN202G,11) 0
Slot(TOL403G,11) 0
Slot(JAR415G,11) 0
Slot(JAR212G,11) 0
Slot(LIF403G,11) 0
Slot(FER208G,11) 0
Slot(UMV203M,11) 0
Slot(HBV203F,11) 0
Slot(STA418M,11) 0
Slot(EDL201G,11) 0
Slot(EFN207G,11) 0
Slot(EDL402M,11) 0
Slot(EDL206G,11) 0
Slot(BYG202M,11) 0
Slot(BYG203M,11) 0
Slot(VEL401G,11) 0
Slot(IDN402G,11) 0
Slot(JAR619G,11) 0
Slot(LIF215G,11) 0
Slot(TOV201G,11) 0
Slot(EFN208G,11) 0
Slot(HBV402G,11) 0
Slot(JAR611G,11) 0
Slot(LIF614M,11) 0
Slot(LAN401G,11) 0
Slot(FER609G,11) 0
Slot(FER211F,11) 0
Slot(RAF404G,11) 0
Slot(STA411G,11) 0
Slot(EDL205G,11) 0
Slot(EFN408G,11) 0
Slot(UMV201G,11) 0
Slot(BYG201M,11) 0
Slot(VEL201G,11) 0
Slot(TOL203M,11) 0
Slot(VEL215F,11) 0
Slot(EFN612M,11) 0
Slot(VEL405G,11) 0
Slot(EDL203G,11) 0
Slot(VEL601G,12) 0
Slot(HBV401G,12) 0
Slot(STA202G,12) 0
Slot(EFN205G,12) 0
Slot(LEF406G,12) 0
Slot(EFN214G,12) 0
Slot(JAR418G,12) 0
Slot(FER603M,12) 0
Slot(RAF403G,12) 0
Slot(BYG603G,12) 0
Slot(TOL203F,12) 0
Slot(IDN209F,12) 0
Slot(JAR253F,12) 1
Slot(LIF412M,12) 0
Slot(LEF617M,12) 0
Slot(UMV213F,12) 0
Slot(LAN203G,12) 0
Slot(STA405G,12) 0
Slot(STA209G,12) 0
Slot(TOL203G,12) 0
Slot(UAU214M,12) 0
Slot(VEL202G,12) 0
Slot(LIF401G,12) 0
Slot(LAN604M,12) 0
Slot(EDL403G,12) 0
Slot(BYG201G,12) 0
Slot(TOL401G,12) 0
Slot(JAR211G,12) 0
Slot(JAR417G,12) 0
Slot(RAF401G,12) 0
Slot(RAF616M,12) 0
Slot(STA403M,12) 0
Slot(EFN410G,12) 0
Slot(IDN403G,12) 0
Slot(REI202M,12) 0
Slot(LIF201G,12) 0
Slot(REI201G,12) 0
Slot(STA207G,12) 0
Slot(STA401G,12) 0
Slot(HBV601G,12) 0
Slot(LIF633G,12) 0
Slot(FER409G,12) 0
Slot(LIF227F,12) 0
Slot(FER210F,12) 0
Slot(STA205G,12) 0
Slot(IDN603G,12) 0
Slot(JED201G,12) 0
Slot(LIF635G,12) 0
Slot(EDL402G,12) 0
Slot(EFN406G,12) 0
Slot(BYG401G,12) 0
Slot(TOV602M,12) 0
Slot(STA203G,12) 1
Slot(MAS201F,12) 1
Slot(VEL218F,12) 0
Slot(JAR617G,12) 0
Slot(LIF410G,12) 0
Slot(UAU206M,12) 0
Slot(LAN205G,12) 0
Slot(LIF243F,12) 0
Slot(RAF601G,12) 0
Slot(EDL204G,12) 0
Slot(EFN404G,12) 1
Slot(BYG601G,12) 0
Slot(IDN401G,12) 0
Slot(LIF214G,12) 0
Slot(EDL612M,12) 0
Slot(VEL402G,12) 0
Slot(HBV201G,12) 0
Slot(JAR202G,12) 0
Slot(LIF615M,12) 0
Slot(RAF201G,12) 0
Slot(LEF616M,12) 0
Slot(UMV203G,12) 0
Slot(TOL202M,12) 0
Slot(LAN219G,12) 0
Slot(LAN410G,12) 0
Slot(LAN209F,12) 0
Slot(RAF402G,12) 0
Slot(EDL401G,12) 0
Slot(EFN202G,12) 0
Slot(TOL403G,12) 0
Slot(JAR415G,12) 1
Slot(JAR212G,12) 0
Slot(LIF403G,12) 0
Slot(FER208G,12) 0
Slot(UMV203M,12) 0
Slot(HBV203F,12) 0
Slot(STA418M,12) 0
Slot(EDL201G,12) 0
Slot(EFN207G,12) 0
Slot(EDL402M,12) 0
Slot(EDL206G,12) 0
Slot(BYG202M,12) 0
Slot(BYG203M,12) 0
Slot(VEL401G,12) 0
Slot(IDN402G,12) 0
Slot(JAR619G,12) 0
Slot(LIF215G,12) 0
Slot(TOV201G,12) 0
Slot(EFN208G,12) 0
Slot(HBV402G,12) 0
Slot(JAR611G,12) 0
Slot(LIF614M,12) 0
Slot(LAN401G,12) 0
Slot(FER609G,12) 0
Slot(FER211F,12) 0
Slot(RAF404G,12) 0
Slot(STA411G,12) 0
Slot(EDL205G,12) 0
Slot(EFN408G,12) 0
Slot(UMV201G,12) 0
Slot(BYG201M,12) 0
Slot(VEL201G,12) 0
Slot(TOL203M,12) 0
Slot(VEL215F,12) 0
Slot(EFN612M,12) 0
Slot(VEL405G,12) 0
Slot(EDL203G,12) 0
Slot(VEL601G,13) 0
Slot(HBV401G,13) 0
Slot(STA202G,13) 0
Slot(EFN205G,13) 0
Slot(LEF406G,13) 0
Slot(EFN214G,13) 0
Slot(JAR418G,13) 0
Slot(FER603M,13) 0
Slot(RAF403G,13) 0
Slot(BYG603G,13) 0
Slot(TOL203F,13) 0
Slot(IDN209F,13) 0
Slot(JAR253F,13) 0
Slot(LIF412M,13) 0
Slot(LEF617M,13) 0
Slot(UMV213F,13) 0
Slot(LAN203G,13) 0
Slot(STA405G,13) 0
Slot(STA209G,13) 0
Slot(TOL203G,13) 0
Slot(UAU214M,13) 0
Slot(VEL202G,13) 0
Slot(LIF401G,13) 0
Slot(LAN604M,13) 0
Slot(EDL403G,13) 0
Slot(BYG201G,13) 0
Slot(TOL401G,13) 0
Slot(JAR211G,13) 0
Slot(JAR417G,13) 0
Slot(RAF401G,13) 0
Slot(RAF616M,13) 0
Slot(STA403M,13) 0
Slot(EFN410G,13) 0
Slot(IDN403G,13) 0
Slot(REI202M,13) 0
Slot(LIF201G,13) 0
Slot(REI201G,13) 0
Slot(STA207G,13) 0
Slot(STA401G,13) 0
Slot(HBV601G,13) 0
Slot(LIF633G,13) 0
Slot(FER409G,13) 0
Slot(LIF227F,13) 0
Slot(FER210F,13) 0
Slot(STA205G,13) 0
Slot(IDN603G,13) 0
Slot(JED201G,13) 0
Slot(LIF635G,13) 0
Slot(EDL402G,13) 0
Slot(EFN406G,13) 0
Slot(BYG401G,13) 0
Slot(TOV602M,13) 0
Slot(STA203G,13) 0
Slot(MAS201F,13) 0
Slot(VEL218F,13) 0
Slot(JAR617G,13) 1
Slot(LIF410G,13) 0
Slot(UAU206M,13) 0
Slot(LAN205G,13) 1
Slot(LIF243F,13) 0
Slot(RAF601G,13) 0
Slot(EDL204G,13) 1
Slot(EFN404G,13) 0
Slot(BYG601G,13) 0
Slot(IDN401G,13) 0
Slot(LIF214G,13) 0
Slot(EDL612M,13) 0
Slot(VEL402G,13) 0
Slot(HBV201G,13) 0
Slot(JAR202G,13) 1
Slot(LIF615M,13) 0
Slot(RAF201G,13) 0
Slot(LEF616M,13) 0
Slot(UMV203G,13) 0
Slot(TOL202M,13) 0
Slot(LAN219G,13) 0
Slot(LAN410G,13) 0
Slot(LAN209F,13) 0
Slot(RAF402G,13) 0
Slot(EDL401G,13) 0
Slot(EFN202G,13) 1
Slot(TOL403G,13) 0
Slot(JAR415G,13) 0
Slot(JAR212G,13) 0
Slot(LIF403G,13) 0
Slot(FER208G,13) 0
Slot(UMV203M,13) 0
Slot(HBV203F,13) 0
Slot(STA418M,13) 0
Slot(EDL201G,13) 0
Slot(EFN207G,13) 0
Slot(EDL402M,13) 0
Slot(EDL206G,13) 0
Slot(BYG202M,13) 1
Slot(BYG203M,13) 0
Slot(VEL401G,13) 0
Slot(IDN402G,13) 0
Slot(JAR619G,13) 0
Slot(LIF215G,13) 0
Slot(TOV201G,13) 0
Slot(EFN208G,13) 0
Slot(HBV402G,13) 0
Slot(JAR611G,13) 0
Slot(LIF614M,13) 0
Slot(LAN401G,13) 0
Slot(FER609G,13) 0
Slot(FER211F,13) 0
Slot(RAF404G,13) 0
Slot(STA411G,13) 0
Slot(EDL205G,13) 0
Slot(EFN408G,13) 0
Slot(UMV201G,13) 0
Slot(BYG201M,13) 0
Slot(VEL201G,13) 0
Slot(TOL203M,13) 1
Slot(VEL215F,13) 0
Slot(EFN612M,13) 0
Slot(VEL405G,13) 1
Slot(EDL203G,13) 1
Slot(VEL601G,14) 0
Slot(HBV401G,14) 0
Slot(STA202G,14) 0
Slot(EFN205G,14) 0
Slot(LEF406G,14) 0
Slot(EFN214G,14) 0
Slot(JAR418G,14) 0
Slot(FER603M,14) 0
Slot(RAF403G,14) 0
Slot(BYG603G,14) 0
Slot(TOL203F,14) 0
Slot(IDN209F,14) 0
Slot(JAR253F,14) 0
Slot(LIF412M,14) 1
Slot(LEF617M,14) 0
Slot(UMV213F,14) 0
Slot(LAN203G,14) 0
Slot(STA405G,14) 0
Slot(STA209G,14) 0
Slot(TOL203G,14) 0
Slot(UAU214M,14) 0
Slot(VEL202G,14) 0
Slot(LIF401G,14) 0
Slot(LAN604M,14) 0
Slot(EDL403G,14) 0
Slot(BYG201G,14) 0
Slot(TOL401G,14) 0
Slot(JAR211G,14) 0
Slot(JAR417G,14) 0
Slot(RAF401G,14) 0
Slot(RAF616M,14) 0
Slot(STA403M,14) 0
Slot(EFN410G,14) 0
Slot(IDN403G,14) 0
Slot(REI202M,14) 0
Slot(LIF201G,14) 0
Slot(REI201G,14) 0
Slot(STA207G,14) 0
Slot(STA401G,14) 0
Slot(HBV601G,14) 0
Slot(LIF633G,14) 0
Slot(FER409G,14) 0
Slot(LIF227F,14) 0
Slot(FER210F,14) 0
Slot(STA205G,14) 0
Slot(IDN603G,14) 0
Slot(JED201G,14) 0
Slot(LIF635G,14) 0
Slot(EDL402G,14) 0
Slot(EFN406G,14) 0
Slot(BYG401G,14) 1
Slot(TOV602M,14) 0
Slot(STA203G,14) 0
Slot(MAS201F,14) 0
Slot(VEL218F,14) 1
Slot(JAR617G,14) 0
Slot(LIF410G,14) 0
Slot(UAU206M,14) 0
Slot(LAN205G,14) 0
Slot(LIF243F,14) 0
Slot(RAF601G,14) 0
Slot(EDL204G,14) 0
Slot(EFN404G,14) 0
Slot(BYG601G,14) 0
Slot(IDN401G,14) 1
Slot(LIF214G,14) 0
Slot(EDL612M,14) 0
Slot(VEL402G,14) 0
Slot(HBV201G,14) 0
Slot(JAR202G,14) 0
Slot(LIF615M,14) 0
Slot(RAF201G,14) 0
Slot(LEF616M,14) 0
Slot(UMV203G,14) 0
Slot(TOL202M,14) 0
Slot(LAN219G,14) 0
Slot(LAN410G,14) 0
Slot(LAN209F,14) 0
Slot(RAF402G,14) 0
Slot(EDL401G,14) 0
Slot(EFN202G,14) 0
Slot(TOL403G,14) 0
Slot(JAR415G,14) 0
Slot(JAR212G,14) 0
Slot(LIF403G,14) 0
Slot(FER208G,14) 0
Slot(UMV203M,14) 0
Slot(HBV203F,14) 0
Slot(STA418M,14) 0
Slot(EDL201G,14) 0
Slot(EFN207G,14) 0
Slot(EDL402M,14) 0
Slot(EDL206G,14) 0
Slot(BYG202M,14) 0
Slot(BYG203M,14) 0
Slot(VEL401G,14) 0
Slot(IDN402G,14) 0
Slot(JAR619G,14) 0
Slot(LIF215G,14) 0
Slot(TOV201G,14) 0
Slot(EFN208G,14) 0
Slot(HBV402G,14) 0
Slot(JAR611G,14) 0
Slot(LIF614M,14) 0
Slot(LAN401G,14) 0
Slot(FER609G,14) 0
Slot(FER211F,14) 0
Slot(RAF404G,14) 0
Slot(STA411G,14) 0
Slot(EDL205G,14) 0
Slot(EFN408G,14) 1
Slot(UMV201G,14) 0
Slot(BYG201M,14) 0
Slot(VEL201G,14) 0
Slot(TOL203M,14) 0
Slot(VEL215F,14) 0
Slot(EFN612M,14) 0
Slot(VEL405G,14) 0
Slot(EDL203G,14) 0
Slot(VEL601G,15) 0
Slot(HBV401G,15) 0
Slot(STA202G,15) 0
Slot(EFN205G,15) 0
Slot(LEF406G,15) 0
Slot(EFN214G,15) 0
Slot(JAR418G,15) 0
Slot(FER603M,15) 0
Slot(RAF403G,15) 0
Slot(BYG603G,15) 0
Slot(TOL203F,15) 0
Slot(IDN209F,15) 0
Slot(JAR253F,15) 0
Slot(LIF412M,15) 0
Slot(LEF617M,15) 0
Slot(UMV213F,15) 1
Slot(LAN203G,15) 0
Slot(STA405G,15) 0
Slot(STA209G,15) 0
Slot(TOL203G,15) 1
Slot(UAU214M,15) 1
Slot(VEL202G,15) 0
Slot(LIF401G,15) 0
Slot(LAN604M,15) 0
Slot(EDL403G,15) 0
Slot(BYG201G,15) 0
Slot(TOL401G,15) 0
Slot(JAR211G,15) 0
Slot(JAR417G,15) 0
Slot(RAF401G,15) 0
Slot(RAF616M,15) 0
Slot(STA403M,15) 0
Slot(EFN410G,15) 0
Slot(IDN403G,15) 0
Slot(REI202M,15) 0
Slot(LIF201G,15) 0
Slot(REI201G,15) 0
Slot(STA207G,15) 0
Slot(STA401G,15) 0
Slot(HBV601G,15) 0
Slot(LIF633G,15) 0
Slot(FER409G,15) 0
Slot(LIF227F,15) 0
Slot(FER210F,15) 0
Slot(STA205G,15) 0
Slot(IDN603G,15) 0
Slot(JED201G,15) 0
Slot(LIF635G,15) 0
Slot(EDL402G,15) 0
Slot(EFN406G,15) 0
Slot(BYG401G,15) 0
Slot(TOV602M,15) 0
Slot(STA203G,15) 0
Slot(MAS201F,15) 0
Slot(VEL218F,15) 0
Slot(JAR617G,15) 0
Slot(LIF410G,15) 0
Slot(UAU206M,15) 0
Slot(LAN205G,15) 0
Slot(LIF243F,15) 0
Slot(RAF601G,15) 0
Slot(EDL204G,15) 0
Slot(EFN404G,15) 0
Slot(BYG601G,15) 0
Slot(IDN401G,15) 0
Slot(LIF214G,15) 0
Slot(EDL612M,15) 0
Slot(VEL402G,15) 0
Slot(HBV201G,15) 0
Slot(JAR202G,15) 0
Slot(LIF615M,15) 0
Slot(RAF201G,15) 0
Slot(LEF616M,15) 0
Slot(UMV203G,15) 0
Slot(TOL202M,15) 0
Slot(LAN219G,15) 0
Slot(LAN410G,15) 0
Slot(LAN209F,15) 0
Slot(RAF402G,15) 0
Slot(EDL401G,15) 0
Slot(EFN202G,15) 0
Slot(TOL403G,15) 0
Slot(JAR415G,15) 0
Slot(JAR212G,15) 0
Slot(LIF403G,15) 0
Slot(FER208G,15) 1
Slot(UMV203M,15) 0
Slot(HBV203F,15) 0
Slot(STA418M,15) 0
Slot(EDL201G,15) 0
Slot(EFN207G,15) 0
Slot(EDL402M,15) 0
Slot(EDL206G,15) 0
Slot(BYG202M,15) 0
Slot(BYG203M,15) 1
Slot(VEL401G,15) 0
Slot(IDN402G,15) 0
Slot(JAR619G,15) 0
Slot(LIF215G,15) 0
Slot(TOV201G,15) 0
Slot(EFN208G,15) 0
Slot(HBV402G,15) 0
Slot(JAR611G,15) 0
Slot(LIF614M,15) 0
Slot(LAN401G,15) 1
Slot(FER609G,15) 0
Slot(FER211F,15) 0
Slot(RAF404G,15) 0
Slot(STA411G,15) 0
Slot(EDL205G,15) 0
Slot(EFN408G,15) 0
Slot(UMV201G,15) 0
Slot(BYG201M,15) 0
Slot(VEL201G,15) 0
Slot(TOL203M,15) 0
Slot(VEL215F,15) 0
Slot(EFN612M,15) 0
Slot(VEL405G,15) 0
Slot(EDL203G,15) 0
Slot(VEL601G,16) 0
Slot(HBV401G,16) 0
Slot(STA202G,16) 1
Slot(EFN205G,16) 1
Slot(LEF406G,16) 0
Slot(EFN214G,16) 1
Slot(JAR418G,16) 0
Slot(FER603M,16) 0
Slot(RAF403G,16) 0
Slot(BYG603G,16) 0
Slot(TOL203F,16) 1
Slot(IDN209F,16) 0
Slot(JAR253F,16) 0
Slot(LIF412M,16) 0
Slot(LEF617M,16) 0
Slot(UMV213F,16) 0
Slot(LAN203G,16) 1
Slot(STA405G,16) 0
Slot(STA209G,16) 1
Slot(TOL203G,16) 0
Slot(UAU214M,16) 0
Slot(VEL202G,16) 0
Slot(LIF401G,16) 0
Slot(LAN604M,16) 0
Slot(EDL403G,16) 0
Slot(BYG201G,16) 0
Slot(TOL401G,16) 0
Slot(JAR211G,16) 0
Slot(JAR417G,16) 0
Slot(RAF401G,16) 0
Slot(RAF616M,16) 0
Slot(STA403M,16) 0
Slot(EFN410G,16) 0
Slot(IDN403G,16) 0
Slot(REI202M,16) 0
Slot(LIF201G,16) 0
Slot(REI201G,16) 0
Slot(STA207G,16) 0
Slot(STA401G,16) 0
Slot(HBV601G,16) 0
Slot(LIF633G,16) 0
Slot(FER409G,16) 0
Slot(LIF227F,16) 0
Slot(FER210F,16) 0
Slot(STA205G,16) 0
Slot(IDN603G,16) 0
Slot(JED201G,16) 0
Slot(LIF635G,16) 0
Slot(EDL402G,16) 0
Slot(EFN406G,16) 0
Slot(BYG401G,16) 0
Slot(TOV602M,16) 0
Slot(STA203G,16) 0
Slot(MAS201F,16) 0
Slot(VEL218F,16) 0
Slot(JAR617G,16) 0
Slot(LIF410G,16) 0
Slot(UAU206M,16) 0
Slot(LAN205G,16) 0
Slot(LIF243F,16) 0
Slot(RAF601G,16) 0
Slot(EDL204G,16) 0
Slot(EFN404G,16) 0
Slot(BYG601G,16) 0
Slot(IDN401G,16) 0
Slot(LIF214G,16) 0
Slot(EDL612M,16) 0
Slot(VEL402G,16) 0
Slot(HBV201G,16) 0
Slot(JAR202G,16) 0
Slot(LIF615M,16) 1
Slot(RAF201G,16) 0
Slot(LEF616M,16) 1
Slot(UMV203G,16) 0
Slot(TOL202M,16) 0
Slot(LAN219G,16) 0
Slot(LAN410G,16) 0
Slot(LAN209F,16) 0
Slot(RAF402G,16) 0
Slot(EDL401G,16) 0
Slot(EFN202G,16) 0
Slot(TOL403G,16) 0
Slot(JAR415G,16) 0
Slot(JAR212G,16) 0
Slot(LIF403G,16) 0
Slot(FER208G,16) 0
Slot(UMV203M,16) 0
Slot(HBV203F,16) 0
Slot(STA418M,16) 0
Slot(EDL201G,16) 0
Slot(EFN207G,16) 0
Slot(EDL402M,16) 0
Slot(EDL206G,16) 0
Slot(BYG202M,16) 0
Slot(BYG203M,16) 0
Slot(VEL401G,16) 0
Slot(IDN402G,16) 0
Slot(JAR619G,16) 0
Slot(LIF215G,16) 0
Slot(TOV201G,16) 0
Slot(EFN208G,16) 0
Slot(HBV402G,16) 1
Slot(JAR611G,16) 0
Slot(LIF614M,16) 0
Slot(LAN401G,16) 0
Slot(FER609G,16) 0
Slot(FER211F,16) 0
Slot(RAF404G,16) 1
Slot(STA411G,16) 0
Slot(EDL205G,16) 0
Slot(EFN408G,16) 0
Slot(UMV201G,16) 0
Slot(BYG201M,16) 0
Slot(VEL201G,16) 0
Slot(TOL203M,16) 0
Slot(VEL215F,16) 0
Slot(EFN612M,16) 0
Slot(VEL405G,16) 0
Slot(EDL203G,16) 0
